$molecule
0  1
H       2.1195528784     0.5137422595    -0.3319342228
C       1.4473683869     1.3590099487    -0.2933475878
C       1.9520728354     2.7134108539    -0.2005020112
O       0.1958898087     1.0825185696    -0.3348212670
C       3.2454834797     3.0352628973    -0.1554278077
H       1.2007132242     3.4800122584    -0.1682859681
H       4.0246737381     2.2977268163    -0.1853180390
H       3.5522735487     4.0594282963    -0.0866880965
$end

$rem
  jobtype               freq
  method                hf
  basis                 6-31G
  cis_state_deriv       1
  cis_singlets          true
  cis_triplets          false
  cis_n_roots           10
  sym_ignore            true
  save_vibronic_params  true
$end

@@@

$molecule
0 1
H       2.1887220025     0.5822572084    -0.3263818343
C       1.4324396944     1.3609255057    -0.2935230057
C       1.9229294089     2.7396586420    -0.1994659959
O       0.2524823254     1.0686412929    -0.3345613296
C       3.2188155499     3.0165609079    -0.1570961185
H       1.1751512346     3.5089725422    -0.1670136583
H       3.9637412628     2.2419565015    -0.1899284285
H       3.5837464216     4.0221392994    -0.0883546292
$end

$rem
  jobtype           freq
  method            hf
  basis             6-31G
  sym_ignore        true
  vibronic_spectra  1
  vibronic_zero_out_nmode  1
$end

$vibronic
  model 2
  freq_range 10000.0 50000.0 5.0
$end
