$molecule
0 1
C      0.0000000000    1.1875260400   -0.9222574453
H      0.0000000000    2.1040448420   -0.3278874451
H      0.8829100000    1.1527498559   -1.5686567469
H     -0.8829100000    1.1527498559   -1.5686567469
C      0.0000000000    0.0000000000    0.0000000000
O      0.0000000000   -0.0000000000    1.1898062021
Cl     0.0000000000   -1.5820990033   -0.9145005744
$end

$rem
JOBTYPE  SP  
METHOD  B3LYP
BASIS  6-31G(D)
SYMMETRY  FALSE
SYM_IGNORE  TRUE
SCF_CONVERGENCE  8
ESP_GRID  -1  
MAKE_CUBE_FILES   TRUE
GUI  2
$end

$plots
plot the ESP 
100  -4.0  4.0 
100  -5.0  5.0 
100  -5.0  5.0 
0 0 0 0 
0
$end
