$molecule
0 1
--
0 1
  C      0.000000    0.000000    0.000000
  C      1.332000    0.000000    0.000000
  H     -0.574301    0.000000   -0.928785
  H     -0.574301    0.000000    0.928785
  H      1.906301    0.000000    0.928785
  H      1.906301    0.000000   -0.928785
--
0 1
  C     -0.000000    4.000000    0.000000
  C      1.332000    4.000000   -0.000000
  H     -0.574301    4.000000    0.928785
  H     -0.574301    4.000000   -0.928785
  H      1.906301    4.000000   -0.928785
  H      1.906301    4.000000    0.928785
$end

$rem
jobtype sp
method  lrc-wpbeh
basis   6-31+g(d)
scf_convergence 8
symmetry false
sym_ignore true
$end
