$molecule
0 1
  O    1.3028342    0.1351160    0.4886373
  C    0.2403005    0.5689240    0.0740547
  C   -0.9417551   -0.3347667   -0.0510221
  H    0.1582101    1.6147765   -0.2034503
  H   -0.7070995   -1.1646542   -0.7500594
  H   -1.8106907    0.2345291   -0.4423010
  H   -1.2005989   -0.7535979    0.9439697
****
  O    0.8115782   -0.5556819   -0.4552501
  C   -0.1190388    0.3952200   -0.2180853
  C   -1.3126225    0.0870782    0.2964189
  H    0.1113971    1.4296267   -0.4516525
  H    0.6561146   -1.4922523   -0.2650153
  H   -2.0439660    0.8679581    0.4781221
  H   -1.5667356   -0.9402313    0.5384077
$end

$rem
   BASIS  =  6-31G
   GUI  =  2
   JOB_TYPE  =  FSM
   METHOD  =  HF
$end

